Optimal - objective value 151.63000000
      0 x0_1                   1         1.59999999999999
      7 x0_8                   1                    8.71
     14 x1_5                   1                   -4.04
     20 x2_0                   1                   48.84
     32 x3_2                   1                       0
     45 x4_6                   1         -2.26441954680147e-15
     54 x5_4                   1                  -20.57
     69 x6_10                  1                       0
     78 x7_9                   1                  -31.58
     87 x8_7                   1                       0
     93 x9_3                   1                   -14.3
    100 x10_0                  1                   41.38
    110 u1       7.99999999999999                       0
    111 u2                    23                       0
    112 u3                    19                       0
    113 u4                    17                       0
    114 u5                    12                       0
    115 u6                    21                       0
    116 u7                    10                       0
    117 u8                     5                       0
    118 u9                    14                       0
    119 u10                   26                       0
